30

 C         1.396336831179      0.058359320901     -0.374035874846
 C         2.206405011480      0.823262732104      0.616812303484
 C         1.751779261897     -1.432950357786     -0.256987678942
 C         3.533920527025      0.293297217975      1.030919128667
 C         3.241224581433     -1.695883266486     -0.526456498917
 H         1.140044266133     -2.021418327037     -0.943565429938
 C         4.153220712653     -0.534817087109     -0.095494212696
 H         4.200725462877      1.110803101805      1.319097348331
 H         3.435585536732     -0.338648485401      1.929201434779
 H         3.531073819028     -2.610303610953     -0.003298934917
 H         3.391289134015     -1.888971591034     -1.591436583390
 H         5.131049613382     -0.916065066180      0.205964226057
 H         4.325988294401      0.129615777133     -0.946711130583
 H         1.657828105665      0.377870786248     -1.395458456919
 C        -0.111298291462      0.269743326955     -0.237258534674
 C        -0.691396264806      0.065367368695      1.074485167536
 C        -0.929093459791     -0.243419745522     -1.319658841897
 C        -0.209567647234      2.168332556301     -0.501563753133
 C        -2.022203248094     -0.179415432181      1.233672833111
 H        -0.060030521033      0.203246411054      1.944335246329
 C        -2.257307818790     -0.488163684430     -1.155742026284
 H        -0.478391735511     -0.334908193100     -2.301557240161
 N        -0.756027533399      3.185835233105     -0.620906521991
 C        -2.862520519027     -0.392241618305      0.118788997599
 H        -2.441551352404     -0.246983405797      2.231562970293
 H        -2.858942647165     -0.791739598245     -2.005350080529
 C        -4.237865204596     -0.644265376017      0.287478780512
 N        -5.369429862501     -0.844055013576      0.425570416513
 H         1.492117388694     -1.764636806559      0.752429355725
 H         1.819236839221      1.740379923443      1.044170200882
