28

 C        -1.237359936917     -0.352246775275      0.032127739009
 C        -2.079596756887      0.648540008125     -0.809852667080
 C        -1.647866484718     -1.759693456827     -0.241101421987
 C        -3.527001448625      0.176213402294     -1.035951999878
 H        -2.065293988002      1.613126335083     -0.297170568856
 H        -1.589118478656      0.796658627895     -1.774052464747
 C        -3.090722079250     -2.113922804109     -0.138422894533
 H        -0.903129764856     -2.540053029076     -0.342138026870
 C        -3.963921906838     -0.865399782084     -0.010940269179
 H        -4.201460059597      1.034377807728     -1.021814659576
 H        -3.612439410033     -0.272461056528     -2.030330719405
 H        -3.397149007974     -2.683243064391     -1.026690532437
 H        -3.263494080326     -2.789708328821      0.710932180663
 H        -5.013430543449     -1.127517363039     -0.156967113428
 H        -3.878853848123     -0.450149321207      0.998064721364
 H        -1.466507627320     -0.133549033827      1.085358645146
 C         0.236423266533     -0.101074918505     -0.157861651526
 C         0.877469891665     -0.489283923900     -1.334773150691
 C         0.979093610368      0.548888300424      0.823803471535
 C         2.221853445945     -0.242356616158     -1.528957621845
 H         0.312652380371     -0.992372200684     -2.110590539068
 C         2.326799671015      0.807283704541      0.647034628230
 H         0.495125583406      0.856070530508      1.743212569284
 C         2.950672107809      0.409248875451     -0.532949898056
 H         2.711386840826     -0.548685057166     -2.444177172717
 H         2.895738342835      1.311591858044      1.417188273014
 C         4.343818929087      0.668776861399     -0.724523999192
 N         5.463903471711      0.877601740104     -0.878901857176
