30

 C        -0.285784344238     -1.842452109305      0.168054284914
 C        -0.566552004314     -1.013732226776      1.299473631614
 C        -1.588555895268     -0.116077863795      1.271162872176
 C        -2.408645427533      0.026802662689      0.107396884187
 C        -2.128947633886     -0.803672189192     -1.023467515074
 C        -1.106962062913     -1.701769428696     -0.994561939386
 H         0.050503751874     -1.101279197550      2.185516077811
 H        -1.784584764680      0.505856640598      2.136340551627
 H        -2.738496555119     -0.708206648988     -1.914126845058
 H        -0.905333110152     -2.317811768704     -1.862737596814
 C        -3.448654197967      0.957990291530      0.073132840113
 C         0.785787359487     -2.736663239803      0.183239865797
 N        -4.315860784419      1.733198593577      0.044166507232
 N         1.680455268832     -3.480728431185      0.192860083287
 C         2.197670425263      0.363937947457     -1.329006361620
 C         2.782666273941      0.134892740246      0.034820089488
 C         2.541343223782      0.921845772191      1.078275195525
 C         1.686272183691      2.154001972324      1.004594535994
 C         1.435048928080      2.588637365765     -0.436957079288
 C         1.067847603027      1.390243899255     -1.305424435910
 H         2.992701765783      0.690333626092     -2.010660532106
 H         3.426342328009     -0.731508527613      0.156731583248
 H         2.975758746655      0.676378770796      2.043311334396
 H         0.731531123961      1.958374008292      1.508226026109
 H         0.644466475440      3.341702440553     -0.468877876895
 H         0.829669996711      1.708897246113     -2.322760549370
 H         1.835381619280     -0.587955449331     -1.729525391223
 H         0.166179172882      0.923199612665     -0.898298361973
 H         2.340829976300      3.058733539074     -0.835505313549
 H         2.161340557493      2.961750951720      1.568893434749
