27

 C        -0.102608861982      0.347433320219     -0.184001794073
 C        -0.992981150740      1.410504029806     -0.056577341006
 C        -2.355562683382      1.193977834728      0.034869574458
 C        -2.844492963982     -0.110204254418     -0.002066750310
 C        -1.967681215069     -1.187292120928     -0.129458365311
 C        -0.609824824569     -0.950858446950     -0.218689361447
 H        -0.612574309452      2.424868074504     -0.030204592008
 H        -3.040262711471      2.026529239296      0.131917240404
 H        -2.353771432357     -2.198027548074     -0.157768318177
 H         0.068425243655     -1.790165714445     -0.317052766400
 C         1.386003512382      0.600196585844     -0.231020861517
 C         2.006990152138      0.393801283268      1.159293634092
 C         2.083950363313     -0.250712714475     -1.262746254405
 H         1.523826173866      1.650777530174     -0.510239805380
 C         3.527925967589      0.426583424492      1.087888207497
 H         1.682751247672     -0.575943013007      1.551852659644
 H         1.631093907742      1.159205128388      1.841806295679
 C         3.262306113102     -0.830388205826     -1.065385185666
 H         1.577796513506     -0.374375287874     -2.215826392605
 C         4.054601731781     -0.698140505178      0.201865279978
 H         3.954576196891      0.347818227118      2.089901643934
 H         3.846792745915      1.390854180909      0.679079176580
 H         3.693602865488     -1.434189342923     -1.858478186336
 H         5.106604439819     -0.529663638033     -0.044078470433
 H         4.024093595064     -1.651525846025      0.742788641492
 C        -4.251282611123     -0.345724493018      0.089466718221
 N        -5.382917112388     -0.535699216771      0.163643949964
