29

 C        -2.086633295438     -0.462527858587     -0.042748819799
 C        -1.578776328875     -1.069847637597     -1.319143550533
 C        -1.779677136421     -1.099236488272      1.186180273926
 C        -0.904541786212     -2.428269147487     -1.110214316890
 C        -0.735867903455     -1.952242215358      1.322418449738
 C         0.014601058743     -2.420133813048      0.113047699911
 H         0.872807474309     -1.759559494216     -0.091027158275
 H         0.431972661249     -3.416933966209      0.279579448940
 C        -0.682710465852      1.398831113354      0.243265120049
 C        -0.145835452776      1.646068366432     -1.065700016973
 C         0.256460014003      1.019213758857      1.267878802961
 C        -1.836562673835      2.128680378548      0.647691731772
 C         1.126353265730      1.265043112547     -1.378403615435
 H        -0.777791561661      2.098810672464     -1.818999330606
 C         1.525276913018      0.648740216660      0.941026299028
 H        -0.063283707300      1.005872642607      2.300355225366
 N        -2.765804765742      2.724986444191      0.986851689477
 C         1.977220690253      0.705287050655     -0.397742358098
 H         1.494925748708      1.403976449324     -2.387767542802
 H         2.203843191116      0.316558602065      1.717829136025
 C         3.282435104214      0.292341961157     -0.730511170853
 N         4.352606240354     -0.052400199061     -1.005350772421
 H        -0.856961927381     -0.388705445490     -1.798932186194
 H        -1.672787876615     -3.193688426483     -0.958146472575
 H        -3.028335747381      0.071645094854     -0.103977474397
 H        -2.397418772336     -1.172880783183     -2.037998765777
 H        -0.345153046696     -2.710322671025     -2.005625318110
 H        -2.324308424706     -0.785794437508      2.073675944053
 H        -0.471464649014     -2.349062870188      2.296707558493
