30 

C         1.705763028151      0.465816747125     -0.865942162397
 C         2.838537410526      0.740236933276      0.118296224942
 C         1.514202279409     -0.880548632701     -1.252594815565
 C         3.104241170442     -0.406505692218      1.091623630199
 C         1.945858080980     -2.037861898229     -0.410200488665
 C         3.228378765011     -1.737455385126      0.362762041455
 H         4.014844829103     -0.193649795628      1.657854703265
 H         2.289183580058     -0.474362675492      1.817645064524
 H         1.156890061830     -2.297632369053      0.312955426909
 H         2.074277326130     -2.925416126650     -1.036583877872
 H         3.440837210440     -2.543102485754      1.070114054962
 H         4.071483647671     -1.691719626259     -0.335574205293
 H         1.699964946467      1.166917468078     -1.701372382977
 C         0.059638291634      1.156608366083     -0.117361499891
 C        -0.241573661674      0.476158983427      1.155854907256
 C        -0.990095653124      0.972244899948     -1.140569286190
 C         0.437091128445      2.539593867668      0.039374603313
 C        -1.085738213139     -0.579830396354      1.187236470151
 H         0.289514580838      0.784216049234      2.047170606659
 C        -1.825089910854     -0.088021932903     -1.085251621605
 H        -1.010870708059      1.648609942387     -1.986388771767
 N         0.771589600247      3.638624389839      0.132543208754
 C        -1.844398062981     -0.967686217464      0.041117547860
 H        -1.220131786034     -1.126461794419      2.114622718989
 H        -2.525767656602     -0.258554592472     -1.895795192507
 C        -2.698583785663     -2.070754546278      0.081552248164
 N        -3.401345905205     -2.997051533880      0.110929696031
 H         3.748367464898      0.920537467784     -0.465208531836
 H         2.657507261812      1.662371012308      0.675739467151
 H         0.883896979246     -1.088442846277     -2.110208424018
