28

 C         1.422128000000      0.831946000000     -0.696873000000
 C         2.074266000000      1.302555000000      0.621421000000
 C         2.222380000000     -0.248237000000     -1.353574000000
 C         2.556275000000      0.138653000000      1.477603000000
 H         2.933807000000      1.931718000000      0.370964000000
 H         1.370247000000      1.929532000000      1.172936000000
 C         3.019980000000     -1.240360000000     -0.580685000000
 H         2.029384000000     -0.446485000000     -2.402663000000
 C         3.596452000000     -0.678246000000      0.720139000000
 H         2.980671000000      0.519316000000      2.409551000000
 H         1.710286000000     -0.501437000000      1.753180000000
 H         3.971570000000     -1.496623000000      1.338668000000
 H         4.451145000000     -0.033261000000      0.490539000000
 H         1.393842000000      1.691978000000     -1.373510000000
 C        -0.036430000000      0.458526000000     -0.460622000000
 C        -0.456508000000     -0.855585000000     -0.272545000000
 C        -0.990108000000      1.476246000000     -0.401417000000
 C        -1.785199000000     -1.151958000000     -0.024198000000
 H         0.257135000000     -1.666668000000     -0.322168000000
 C        -2.320008000000      1.200592000000     -0.156309000000
 H        -0.681086000000      2.504079000000     -0.552647000000
 C        -2.720292000000     -0.122188000000      0.035520000000
 H        -2.099779000000     -2.177278000000      0.121910000000
 H        -3.050196000000      1.998686000000     -0.115381000000
 C        -4.094346000000     -0.421860000000      0.289217000000
 N        -5.199865000000     -0.662991000000      0.494059000000
 H         2.383503000000     -2.104615000000     -0.326981000000
 H         3.816988000000     -1.648509000000     -1.208880000000
