29

 C         1.363642514796      0.147813762501     -0.672715683537
 C         2.469601373307      0.606414202987      0.240313239382
 C         1.160942748624     -1.362495991667     -0.580762985606
 C         3.333606468817     -0.212591181641      0.829679069818
 C         2.494688639989     -2.099931653782     -0.579437715919
 H         0.536434469075     -1.702295596941     -1.408486931702
 C         3.338548598839     -1.698495288799      0.625555028986
 H         2.327817474515     -3.179179996217     -0.579883256023
 H         3.040365487682     -1.861101308424     -1.498376675237
 H         2.960298921304     -2.187226103134      1.531446681885
 H         4.368379242111     -2.046715029217      0.506563890415
 C         0.018383875728      0.914497996015     -0.394309228127
 C        -0.463048830983      0.748754793738      1.037444919908
 C        -1.061390592614      0.493773784458     -1.378088528330
 C         0.290919954036      2.352046893094     -0.627924708367
 C        -1.652411777259      0.203595576076      1.354156281938
 H         0.214948823988      1.069511497632      1.819377655963
 C        -2.233354751654     -0.046261331922     -0.997928498431
 H        -0.827635021736      0.616603700969     -2.429680732728
 N         0.471626220294      3.472699393706     -0.813891414055
 C        -2.595924495265     -0.237420073560      0.373493745831
 H        -1.907583399304      0.095054281312      2.404041506309
 H        -2.936665865699     -0.349672511892     -1.767583070191
 C        -3.815558311768     -0.797212431163      0.734349370919
 N        -4.837318311874     -1.269718012567      1.036692143943
 H         0.620370890505     -1.593927337589      0.343217367725
 H         2.552982032175      1.675298052875      0.419533939542
 H         4.089370404653      0.201750787421      1.490737782205
 H         1.641261737718      0.402843155733     -1.703994886513
