29

 C         3.195994400734      0.342576733899     -0.688694368459
 C         2.900142255090      1.186288652356      0.399787617481
 C         2.235596991979      0.116171810904     -1.683608884390
 C         4.477443243478     -0.259843511536     -0.792996630999
 C         1.657697459065      1.753745291665      0.505897337504
 H         3.655203254490      1.382909261099      1.149763598255
 C         0.985019303827      0.673745871639     -1.575329444708
 H         2.477372154855     -0.509489945032     -2.532992242136
 N         5.518742151701     -0.748856312373     -0.876174874137
 C         0.666305762305      1.476777549382     -0.461009116372
 H         1.427860855896      2.408574287323      1.336107615425
 H         0.249948996267      0.509820671829     -2.349927101197
 C        -0.585971945225      2.144031672016     -0.409723944265
 N        -1.573167836816      2.745252477063     -0.416942322546
 C        -0.930840333813     -1.218900433631     -0.148859130465
 C        -0.865263991528     -0.480564960663      1.025153129320
 C         0.046904734773     -2.099773862284     -0.557007191492
 C         0.209251077256     -0.773885619507      2.024088341252
 C         1.184671283391     -2.427884146479      0.362504545928
 H        -0.047574660061     -2.629797093198     -1.498299305564
 C         0.803564867109     -2.173191889331      1.825447513228
 H        -0.171419177114     -0.678818645250      3.046722532168
 H         2.080917544824     -1.827130993780      0.126937062925
 H         0.059793371377     -2.918739985758      2.127957128628
 H         1.031574757381     -0.037956783738      1.951363535865
 H         1.674092304529     -2.309787325131      2.472909432007
 H         1.495381220995     -3.471147154894      0.241322339534
 H        -1.766277127967     -1.031447092883     -0.822028646746
 H        -1.682162258799      0.174404046293      1.303283023955
