29

 C         1.571907960980      1.201802713093     -0.576990962530
 C         2.525108977126      1.687810088374      0.480882365021
 C         1.740073207143     -0.305504851500     -0.799387431375
 C         3.580499682877      0.999885920954      0.901882606926
 C         3.213534573217     -0.674216182235     -0.923811866808
 H         1.189791522625     -0.610381286200     -1.691993848457
 C         3.967919955895     -0.344598016415      0.360218810821
 H         3.319000973751     -1.735040479277     -1.160709667777
 H         3.653405040334     -0.115881265471     -1.756756037795
 H         3.767867045201     -1.107414727949      1.122339456725
 H         5.047675312111     -0.372137366913      0.188345399679
 C         0.112398626427      1.539041051755     -0.262849999688
 C        -0.383677938214      1.182399061911      1.050941350826
 C        -0.837500333726      1.290923086609     -1.330367651463
 C         0.205792729985      3.454437440525     -0.226874166191
 C        -1.716453137601      1.037194117516      1.293380000657
 H         0.322055591710      1.119734282766      1.870808035389
 C        -2.167160001105      1.144155580702     -1.082372178816
 H        -0.477889443563      1.324183784313     -2.352570233578
 N        -0.230622892415      4.527441862678     -0.148905747303
 C        -2.658200322660      1.083737314258      0.242187976145
 H        -2.061766891531      0.848870229132      2.304025364266
 H        -2.861251882133      1.041014076180     -1.909116833864
 C        -4.034805030998      0.930325450208      0.497227669883
 N        -5.166611331870      0.811285225358      0.707525077741
 H         1.301270488802     -0.846560757595      0.045581289283
 H         2.318435526364      2.664516485604      0.909545785698
 H         4.210060871173      1.420363511129      1.680867916790
 H         1.809621180094      1.713120450491     -1.516943300207
