30 

 C        -2.408975213530     -0.391881249644      0.178149879700
 C        -1.945876815083     -1.264887106159      1.212120651994
 C        -1.845528377518     -0.532310214821     -1.129203252816
 C        -3.358356362395      0.595517322361      0.445691124457
 C        -0.996109872618     -2.206149687904      0.958478153308
 H        -2.357323983498     -1.168698598970      2.209785554256
 C        -0.895506374009     -1.472537961654     -1.382687535043
 H        -2.178965938324      0.125659869545     -1.922470546509
 N        -4.146761699625      1.421459651187      0.670190743765
 C        -0.432492086783     -2.346533377498     -0.348722991609
 H        -0.654270679638     -2.856027125183      1.755145120449
 H        -0.476625650488     -1.561545074690     -2.377870997237
 C         0.559793709022     -3.295191890800     -0.603601007023
 N         1.388206723557     -4.084185412939     -0.815952790863
 C        -0.667207016929      2.855485801055      0.200904798485
 C        -0.372258667928      2.452064875818      1.616479355624
 C         0.067704431103      2.471348907081     -0.837642692292
 C         1.033251999671      1.875601307568      1.765302768996
 H        -1.116328607661      1.713402598810      1.939476290574
 C         1.258973274817      1.564488621061     -0.720666958279
 H        -0.195620176921      2.815745010179     -1.833788495977
 C         1.332545697126      0.886078514673      0.644429291037
 H         1.139010427201      1.393905365404      2.740010273423
 H         2.171506148380      2.144572069754     -0.905666180572
 H         0.597270550054      0.076887143964      0.682362078952
 H        -0.503091530922      3.314462246613      2.276496806036
 H         1.764025173138      2.691119340674      1.731002203906
 H         2.315501749458      0.430385861484      0.784115889786
 H         1.219497847392      0.811767903773     -1.513800439640
 H        -1.533630067049      3.489676589257      0.036821253114
